NAME 
ROWS
 N  OBJ
 L  R0      
 L  R1      
 L  R2      
 L  R3      
 E  R4      
COLUMNS
    MARKER    'MARKER'                 'INTORG'
    I0(5)     OBJ       -651
    I0(5)     R0        -221
    I0(5)     R1        -727
    I0(5)     R2        -184
    I0(5)     R3        -134
    I0(5)     R4        475
    I1(5)     OBJ       -525
    I1(5)     R0        -415
    I1(5)     R1        -779
    I1(5)     R2        -956
    I1(5)     R3        -12
    I1(5)     R4        933
    I2(5)     OBJ       -190
    I2(5)     R0        -565
    I2(5)     R1        -156
    I2(5)     R2        -524
    I2(5)     R3        -834
    I2(5)     R4        106
    I3(5)     OBJ       -585
    I3(5)     R0        -99
    I3(5)     R1        -115
    I3(5)     R2        -373
    I3(5)     R3        -698
    I3(5)     R4        631
    I4(5)     OBJ       -697
    I4(5)     R0        -785
    I4(5)     R1        -299
    I4(5)     R2        -541
    I4(5)     R3        -110
    I4(5)     R4        47
    I5(5)     OBJ       -140
    I5(5)     R0        -724
    I5(5)     R1        -763
    I5(5)     R2        -220
    I5(5)     R3        -618
    I5(5)     R4        404
    I6(5)     OBJ       -853
    I6(5)     R0        -978
    I6(5)     R1        -692
    I6(5)     R2        -512
    I6(5)     R3        -422
    I6(5)     R4        394
    I7(5)     OBJ       -571
    I7(5)     R0        -589
    I7(5)     R1        -558
    I7(5)     R2        -394
    I7(5)     R3        -87
    I7(5)     R4        739
    I8(5)     OBJ       -908
    I8(5)     R0        -906
    I8(5)     R1        -306
    I8(5)     R2        -791
    I8(5)     R3        -207
    I8(5)     R4        961
    I9(5)     OBJ       -740
    I9(5)     R0        -388
    I9(5)     R1        -1000
    I9(5)     R2        -420
    I9(5)     R3        -327
    I9(5)     R4        699
    I10(1)    R4        1
    MARKER    'MARKER'                 'INTEND'
RHS
    RHS1      R0        -3843
    RHS1      R1        -3180
    RHS1      R2        -2972
    RHS1      R3        -2034
    RHS1      R4        2694
BOUNDS
 UP BND1      I0(5)     1
 UP BND1      I1(5)     1
 UP BND1      I2(5)     1
 UP BND1      I3(5)     1
 UP BND1      I4(5)     1
 UP BND1      I5(5)     1
 UP BND1      I6(5)     1
 UP BND1      I7(5)     1
 UP BND1      I8(5)     1
 UP BND1      I9(5)     1
 LI BND1      I10(1)    0
ENDATA
